NAME          
ROWS
 N  OBJ
 L  c2
 L  c3
 L  c4
 L  c5
 L  c6
 L  c7
 L  c8
 L  c9
 L  c10
 L  c11
 G  c1
COLUMNS
    ss[1]     c1        1
    ss[1]     OBJ       1000
    s[1]      c2        1
    s[1]      OBJ       -1000
    s[2]      c3        1
    s[2]      OBJ       -1000
    s[3]      c4        1
    s[3]      OBJ       -1000
    s[4]      c5        1
    s[4]      OBJ       -1000
    s[5]      c6        1
    s[5]      OBJ       -1000
    s[6]      c7        1
    s[6]      OBJ       -1000
    s[7]      c8        1
    s[7]      OBJ       -1000
    s[8]      c9        1
    s[8]      OBJ       -1000
    s[9]      c10       1
    s[9]      OBJ       -1000
    s[10]     c11       1
    s[10]     OBJ       -1000
    MARKER    'MARKER'                 'INTORG'
    x[1]      c2        387
    x[1]      c3        539
    x[1]      c4        213
    x[1]      c5        867
    x[1]      c6        715
    x[1]      c7        221
    x[1]      c8        571
    x[1]      c9        389
    x[1]      c10       25
    x[1]      c11       619
    x[1]      c1        556
    x[1]      OBJ       -725
    x[2]      c2        969
    x[2]      c3        15
    x[2]      c4        317
    x[2]      c5        210
    x[2]      c6        457
    x[2]      c7        489
    x[2]      c8        11
    x[2]      c9        615
    x[2]      c10       766
    x[2]      c11       382
    x[2]      c1        736
    x[2]      OBJ       -493
    x[3]      c2        277
    x[3]      c3        100
    x[3]      c4        214
    x[3]      c5        509
    x[3]      c6        258
    x[3]      c7        472
    x[3]      c8        247
    x[3]      c9        558
    x[3]      c10       238
    x[3]      c11       175
    x[3]      c1        301
    x[3]      OBJ       -843
    x[4]      c2        755
    x[4]      c3        296
    x[4]      c4        185
    x[4]      c5        806
    x[4]      c6        441
    x[4]      c7        412
    x[4]      c8        517
    x[4]      c9        218
    x[4]      c10       306
    x[4]      c11       282
    x[4]      c1        111
    x[4]      OBJ       -990
    x[5]      c2        230
    x[5]      c3        401
    x[5]      c4        130
    x[5]      c5        540
    x[5]      c6        358
    x[5]      c7        473
    x[5]      c8        920
    x[5]      c9        490
    x[5]      c10       456
    x[5]      c11       750
    x[5]      c1        704
    x[5]      OBJ       -719
    x[6]      c2        405
    x[6]      c3        329
    x[6]      c4        169
    x[6]      c5        580
    x[6]      c6        793
    x[6]      c7        911
    x[6]      c8        435
    x[6]      c9        492
    x[6]      c10       87
    x[6]      c11       19
    x[6]      c1        408
    x[6]      OBJ       -948
    x[7]      c2        852
    x[7]      c3        953
    x[7]      c4        153
    x[7]      c5        449
    x[7]      c6        450
    x[7]      c7        173
    x[7]      c8        547
    x[7]      c9        6
    x[7]      c10       474
    x[7]      c11       122
    x[7]      c1        163
    x[7]      OBJ       -1166
    x[8]      c2        653
    x[8]      c3        801
    x[8]      c4        205
    x[8]      c5        95
    x[8]      c6        570
    x[8]      c7        479
    x[8]      c8        276
    x[8]      c9        750
    x[8]      c10       518
    x[8]      c11       134
    x[8]      c1        315
    x[8]      OBJ       -941
    x[9]      c2        785
    x[9]      c3        232
    x[9]      c4        647
    x[9]      c5        733
    x[9]      c6        615
    x[9]      c7        103
    x[9]      c8        162
    x[9]      c9        367
    x[9]      c10       935
    x[9]      c11       368
    x[9]      c1        670
    x[9]      OBJ       -864
    x[10]     c2        852
    x[10]     c3        285
    x[10]     c4        420
    x[10]     c5        861
    x[10]     c6        446
    x[10]     c7        505
    x[10]     c8        507
    x[10]     c9        896
    x[10]     c10       252
    x[10]     c11       376
    x[10]     c1        457
    x[10]     OBJ       -715
    x[11]     c2        121
    x[11]     c3        668
    x[11]     c4        586
    x[11]     c5        362
    x[11]     c6        35
    x[11]     c7        883
    x[11]     c8        316
    x[11]     c9        263
    x[11]     c10       76
    x[11]     c11       312
    x[11]     c1        357
    x[11]     OBJ       -1012
    x[12]     c2        866
    x[12]     c3        636
    x[12]     c4        53
    x[12]     c5        789
    x[12]     c6        150
    x[12]     c7        418
    x[12]     c8        660
    x[12]     c9        724
    x[12]     c10       337
    x[12]     c11       333
    x[12]     c1        916
    x[12]     OBJ       -576
    x[13]     c2        853
    x[13]     c3        341
    x[13]     c4        145
    x[13]     c5        397
    x[13]     c6        434
    x[13]     c7        504
    x[13]     c8        119
    x[13]     c9        397
    x[13]     c10       446
    x[13]     c11       798
    x[13]     c1        614
    x[13]     OBJ       -848
    x[14]     c2        831
    x[14]     c3        969
    x[14]     c4        629
    x[14]     c5        863
    x[14]     c6        304
    x[14]     c7        283
    x[14]     c8        337
    x[14]     c9        852
    x[14]     c10       204
    x[14]     c11       907
    x[14]     c1        60
    x[14]     OBJ       -1244
    x[15]     c2        566
    x[15]     c3        493
    x[15]     c4        831
    x[15]     c5        208
    x[15]     c6        879
    x[15]     c7        440
    x[15]     c8        957
    x[15]     c9        914
    x[15]     c10       723
    x[15]     c11       592
    x[15]     c1        373
    x[15]     OBJ       -1224
    x[16]     c2        641
    x[16]     c3        128
    x[16]     c4        766
    x[16]     c5        249
    x[16]     c6        299
    x[16]     c7        236
    x[16]     c8        787
    x[16]     c9        708
    x[16]     c10       831
    x[16]     c11       742
    x[16]     c1        182
    x[16]     OBJ       -1301
    x[17]     c2        918
    x[17]     c3        235
    x[17]     c4        140
    x[17]     c5        248
    x[17]     c6        974
    x[17]     c7        321
    x[17]     c8        232
    x[17]     c9        323
    x[17]     c10       478
    x[17]     c11       895
    x[17]     c1        129
    x[17]     OBJ       -1017
    x[18]     c2        771
    x[18]     c3        274
    x[18]     c4        892
    x[18]     c5        946
    x[18]     c6        844
    x[18]     c7        106
    x[18]     c8        714
    x[18]     c9        549
    x[18]     c10       233
    x[18]     c11       949
    x[18]     c1        767
    x[18]     OBJ       -497
    x[19]     c2        258
    x[19]     c3        129
    x[19]     c4        102
    x[19]     c5        566
    x[19]     c6        147
    x[19]     c7        780
    x[19]     c8        341
    x[19]     c9        30
    x[19]     c10       453
    x[19]     c11       140
    x[19]     c1        896
    x[19]     OBJ       -172
    x[20]     c2        962
    x[20]     c3        404
    x[20]     c4        857
    x[20]     c5        551
    x[20]     c6        39
    x[20]     c7        876
    x[20]     c8        96
    x[20]     c9        521
    x[20]     c10       208
    x[20]     c11       884
    x[20]     c1        178
    x[20]     OBJ       -1096
    x[21]     c2        483
    x[21]     c3        852
    x[21]     c4        722
    x[21]     c5        410
    x[21]     c6        117
    x[21]     c7        687
    x[21]     c8        760
    x[21]     c9        920
    x[21]     c10       12
    x[21]     c11       666
    x[21]     c1        975
    x[21]     OBJ       -242
    x[22]     c2        298
    x[22]     c3        812
    x[22]     c4        246
    x[22]     c5        302
    x[22]     c6        602
    x[22]     c7        752
    x[22]     c8        132
    x[22]     c9        844
    x[22]     c10       892
    x[22]     c11       841
    x[22]     c1        226
    x[22]     OBJ       -1292
    x[23]     c2        409
    x[23]     c3        621
    x[23]     c4        784
    x[23]     c5        699
    x[23]     c6        140
    x[23]     c7        787
    x[23]     c8        711
    x[23]     c9        373
    x[23]     c10       923
    x[23]     c11       950
    x[23]     c1        404
    x[23]     OBJ       -1296
    x[24]     c2        352
    x[24]     c3        645
    x[24]     c4        16
    x[24]     c5        989
    x[24]     c6        598
    x[24]     c7        708
    x[24]     c8        587
    x[24]     c9        192
    x[24]     c10       274
    x[24]     c11       763
    x[24]     c1        833
    x[24]     OBJ       -624
    x[25]     c2        765
    x[25]     c3        800
    x[25]     c4        412
    x[25]     c5        259
    x[25]     c6        308
    x[25]     c7        285
    x[25]     c8        45
    x[25]     c9        560
    x[25]     c10       832
    x[25]     c11       167
    x[25]     c1        575
    x[25]     OBJ       -490
    x[26]     c2        990
    x[26]     c3        651
    x[26]     c4        249
    x[26]     c5        323
    x[26]     c6        429
    x[26]     c7        145
    x[26]     c8        580
    x[26]     c9        207
    x[26]     c10       486
    x[26]     c11       362
    x[26]     c1        340
    x[26]     OBJ       -753
    x[27]     c2        699
    x[27]     c3        21
    x[27]     c4        394
    x[27]     c5        325
    x[27]     c6        22
    x[27]     c7        896
    x[27]     c8        95
    x[27]     c9        671
    x[27]     c10       707
    x[27]     c11       523
    x[27]     c1        321
    x[27]     OBJ       -772
    x[28]     c2        878
    x[28]     c3        507
    x[28]     c4        597
    x[28]     c5        769
    x[28]     c6        344
    x[28]     c7        724
    x[28]     c8        590
    x[28]     c9        822
    x[28]     c10       25
    x[28]     c11       649
    x[28]     c1        580
    x[28]     OBJ       -1020
    x[29]     c2        801
    x[29]     c3        966
    x[29]     c4        802
    x[29]     c5        716
    x[29]     c6        801
    x[29]     c7        533
    x[29]     c8        25
    x[29]     c9        958
    x[29]     c10       124
    x[29]     c11       18
    x[29]     c1        425
    x[29]     OBJ       -820
    x[30]     c2        83
    x[30]     c3        829
    x[30]     c4        467
    x[30]     c5        760
    x[30]     c6        876
    x[30]     c7        137
    x[30]     c8        614
    x[30]     c9        214
    x[30]     c10       15
    x[30]     c11       362
    x[30]     c1        955
    x[30]     OBJ       -366
    x[31]     c2        949
    x[31]     c3        791
    x[31]     c4        967
    x[31]     c5        469
    x[31]     c6        56
    x[31]     c7        91
    x[31]     c8        272
    x[31]     c9        352
    x[31]     c10       385
    x[31]     c11       310
    x[31]     c1        739
    x[31]     OBJ       -751
    x[32]     c2        586
    x[32]     c3        199
    x[32]     c4        254
    x[32]     c5        165
    x[32]     c6        68
    x[32]     c7        427
    x[32]     c8        47
    x[32]     c9        612
    x[32]     c10       904
    x[32]     c11       348
    x[32]     c1        473
    x[32]     OBJ       -640
    x[33]     c2        46
    x[33]     c3        874
    x[33]     c4        66
    x[33]     c5        981
    x[33]     c6        984
    x[33]     c7        504
    x[33]     c8        437
    x[33]     c9        885
    x[33]     c10       917
    x[33]     c11       199
    x[33]     c1        946
    x[33]     OBJ       -288
    x[34]     c2        506
    x[34]     c3        404
    x[34]     c4        11
    x[34]     c5        317
    x[34]     c6        923
    x[34]     c7        305
    x[34]     c8        921
    x[34]     c9        365
    x[34]     c10       335
    x[34]     c11       282
    x[34]     c1        666
    x[34]     OBJ       -598
    x[35]     c2        178
    x[35]     c3        883
    x[35]     c4        656
    x[35]     c5        848
    x[35]     c6        794
    x[35]     c7        262
    x[35]     c8        174
    x[35]     c9        474
    x[35]     c10       717
    x[35]     c11       739
    x[35]     c1        630
    x[35]     OBJ       -960
    x[36]     c2        563
    x[36]     c3        284
    x[36]     c4        458
    x[36]     c5        500
    x[36]     c6        87
    x[36]     c7        214
    x[36]     c8        347
    x[36]     c9        907
    x[36]     c10       580
    x[36]     c11       63
    x[36]     c1        462
    x[36]     OBJ       -626
    x[37]     c2        141
    x[37]     c3        660
    x[37]     c4        105
    x[37]     c5        685
    x[37]     c6        396
    x[37]     c7        885
    x[37]     c8        778
    x[37]     c9        903
    x[37]     c10       52
    x[37]     c11       153
    x[37]     c1        841
    x[37]     OBJ       -563
    x[38]     c2        668
    x[38]     c3        764
    x[38]     c4        628
    x[38]     c5        202
    x[38]     c6        872
    x[38]     c7        590
    x[38]     c8        14
    x[38]     c9        173
    x[38]     c10       29
    x[38]     c11       516
    x[38]     c1        2
    x[38]     OBJ       -1225
    x[39]     c2        464
    x[39]     c3        535
    x[39]     c4        502
    x[39]     c5        738
    x[39]     c6        58
    x[39]     c7        955
    x[39]     c8        662
    x[39]     c9        723
    x[39]     c10       379
    x[39]     c11       143
    x[39]     c1        778
    x[39]     OBJ       -761
    x[40]     c2        444
    x[40]     c3        568
    x[40]     c4        107
    x[40]     c5        313
    x[40]     c6        330
    x[40]     c7        647
    x[40]     c8        626
    x[40]     c9        959
    x[40]     c10       758
    x[40]     c11       461
    x[40]     c1        714
    x[40]     OBJ       -533
    x[41]     c2        27
    x[41]     c3        525
    x[41]     c4        381
    x[41]     c5        174
    x[41]     c6        301
    x[41]     c7        739
    x[41]     c8        111
    x[41]     c9        970
    x[41]     c10       121
    x[41]     c11       920
    x[41]     c1        855
    x[41]     OBJ       -276
    x[42]     c2        157
    x[42]     c3        369
    x[42]     c4        485
    x[42]     c5        307
    x[42]     c6        687
    x[42]     c7        192
    x[42]     c8        635
    x[42]     c9        145
    x[42]     c10       915
    x[42]     c11       73
    x[42]     c1        768
    x[42]     OBJ       -296
    x[43]     c2        394
    x[43]     c3        436
    x[43]     c4        885
    x[43]     c5        955
    x[43]     c6        513
    x[43]     c7        702
    x[43]     c8        735
    x[43]     c9        228
    x[43]     c10       309
    x[43]     c11       178
    x[43]     c1        141
    x[43]     OBJ       -1034
    x[44]     c2        734
    x[44]     c3        489
    x[44]     c4        905
    x[44]     c5        612
    x[44]     c6        983
    x[44]     c7        700
    x[44]     c8        740
    x[44]     c9        438
    x[44]     c10       524
    x[44]     c11       897
    x[44]     c1        847
    x[44]     OBJ       -726
    x[45]     c2        896
    x[45]     c3        271
    x[45]     c4        150
    x[45]     c5        678
    x[45]     c6        775
    x[45]     c7        134
    x[45]     c8        466
    x[45]     c9        837
    x[45]     c10       11
    x[45]     c11       726
    x[45]     c1        325
    x[45]     OBJ       -988
    x[46]     c2        268
    x[46]     c3        838
    x[46]     c4        306
    x[46]     c5        762
    x[46]     c6        69
    x[46]     c7        803
    x[46]     c8        380
    x[46]     c9        744
    x[46]     c10       437
    x[46]     c11       108
    x[46]     c1        765
    x[46]     OBJ       -490
    x[47]     c2        409
    x[47]     c3        994
    x[47]     c4        129
    x[47]     c5        158
    x[47]     c6        992
    x[47]     c7        193
    x[47]     c8        183
    x[47]     c9        959
    x[47]     c10       448
    x[47]     c11       978
    x[47]     c1        10
    x[47]     OBJ       -1523
    x[48]     c2        919
    x[48]     c3        792
    x[48]     c4        251
    x[48]     c5        723
    x[48]     c6        817
    x[48]     c7        236
    x[48]     c8        791
    x[48]     c9        221
    x[48]     c10       60
    x[48]     c11       731
    x[48]     c1        162
    x[48]     OBJ       -1264
    x[49]     c2        477
    x[49]     c3        172
    x[49]     c4        928
    x[49]     c5        662
    x[49]     c6        252
    x[49]     c7        355
    x[49]     c8        759
    x[49]     c9        534
    x[49]     c10       866
    x[49]     c11       816
    x[49]     c1        208
    x[49]     OBJ       -1177
    x[50]     c2        876
    x[50]     c3        661
    x[50]     c4        152
    x[50]     c5        747
    x[50]     c6        540
    x[50]     c7        352
    x[50]     c8        741
    x[50]     c9        751
    x[50]     c10       502
    x[50]     c11       931
    x[50]     c1        981
    x[50]     OBJ       -727
    x[51]     c2        89
    x[51]     c3        868
    x[51]     c4        932
    x[51]     c5        46
    x[51]     c6        33
    x[51]     c7        19
    x[51]     c8        661
    x[51]     c9        854
    x[51]     c10       865
    x[51]     c11       718
    x[51]     c1        638
    x[51]     OBJ       -591
    x[52]     c2        29
    x[52]     c3        415
    x[52]     c4        828
    x[52]     c5        338
    x[52]     c6        654
    x[52]     c7        178
    x[52]     c8        510
    x[52]     c9        510
    x[52]     c10       464
    x[52]     c11       515
    x[52]     c1        184
    x[52]     OBJ       -991
    x[53]     c2        927
    x[53]     c3        187
    x[53]     c4        554
    x[53]     c5        664
    x[53]     c6        294
    x[53]     c7        28
    x[53]     c8        920
    x[53]     c9        865
    x[53]     c10       409
    x[53]     c11       132
    x[53]     c1        124
    x[53]     OBJ       -1070
    x[54]     c2        636
    x[54]     c3        210
    x[54]     c4        195
    x[54]     c5        725
    x[54]     c6        147
    x[54]     c7        120
    x[54]     c8        495
    x[54]     c9        316
    x[54]     c10       65
    x[54]     c11       617
    x[54]     c1        910
    x[54]     OBJ       -137
    x[55]     c2        412
    x[55]     c3        675
    x[55]     c4        791
    x[55]     c5        456
    x[55]     c6        464
    x[55]     c7        552
    x[55]     c8        659
    x[55]     c9        219
    x[55]     c10       94
    x[55]     c11       296
    x[55]     c1        332
    x[55]     OBJ       -779
    x[56]     c2        17
    x[56]     c3        849
    x[56]     c4        134
    x[56]     c5        795
    x[56]     c6        6
    x[56]     c7        247
    x[56]     c8        696
    x[56]     c9        627
    x[56]     c10       192
    x[56]     c11       755
    x[56]     c1        634
    x[56]     OBJ       -475
    x[57]     c2        510
    x[57]     c3        905
    x[57]     c4        563
    x[57]     c5        243
    x[57]     c6        711
    x[57]     c7        211
    x[57]     c8        538
    x[57]     c9        904
    x[57]     c10       380
    x[57]     c11       143
    x[57]     c1        555
    x[57]     OBJ       -720
    x[58]     c2        838
    x[58]     c3        854
    x[58]     c4        560
    x[58]     c5        486
    x[58]     c6        954
    x[58]     c7        477
    x[58]     c8        768
    x[58]     c9        747
    x[58]     c10       120
    x[58]     c11       661
    x[58]     c1        55
    x[58]     OBJ       -1206
    x[59]     c2        721
    x[59]     c3        731
    x[59]     c4        389
    x[59]     c5        54
    x[59]     c6        30
    x[59]     c7        6
    x[59]     c8        183
    x[59]     c9        771
    x[59]     c10       700
    x[59]     c11       391
    x[59]     c1        396
    x[59]     OBJ       -766
    x[60]     c2        931
    x[60]     c3        518
    x[60]     c4        50
    x[60]     c5        588
    x[60]     c6        112
    x[60]     c7        809
    x[60]     c8        533
    x[60]     c9        474
    x[60]     c10       106
    x[60]     c11       670
    x[60]     c1        23
    x[60]     OBJ       -1320
    x[61]     c2        476
    x[61]     c3        61
    x[61]     c4        466
    x[61]     c5        94
    x[61]     c6        748
    x[61]     c7        623
    x[61]     c8        836
    x[61]     c9        653
    x[61]     c10       382
    x[61]     c11       36
    x[61]     c1        171
    x[61]     OBJ       -874
    x[62]     c2        794
    x[62]     c3        260
    x[62]     c4        489
    x[62]     c5        260
    x[62]     c6        977
    x[62]     c7        321
    x[62]     c8        921
    x[62]     c9        257
    x[62]     c10       159
    x[62]     c11       560
    x[62]     c1        310
    x[62]     OBJ       -922
    x[63]     c2        322
    x[63]     c3        792
    x[63]     c4        742
    x[63]     c5        225
    x[63]     c6        689
    x[63]     c7        397
    x[63]     c8        957
    x[63]     c9        785
    x[63]     c10       900
    x[63]     c11       191
    x[63]     c1        181
    x[63]     OBJ       -1306
    x[64]     c2        545
    x[64]     c3        403
    x[64]     c4        283
    x[64]     c5        682
    x[64]     c6        249
    x[64]     c7        853
    x[64]     c8        681
    x[64]     c9        790
    x[64]     c10       938
    x[64]     c11       378
    x[64]     c1        378
    x[64]     OBJ       -1119
    x[65]     c2        958
    x[65]     c3        834
    x[65]     c4        154
    x[65]     c5        486
    x[65]     c6        78
    x[65]     c7        743
    x[65]     c8        935
    x[65]     c9        152
    x[65]     c10       71
    x[65]     c11       987
    x[65]     c1        600
    x[65]     OBJ       -970
    x[66]     c2        592
    x[66]     c3        749
    x[66]     c4        444
    x[66]     c5        443
    x[66]     c6        990
    x[66]     c7        235
    x[66]     c8        534
    x[66]     c9        386
    x[66]     c10       981
    x[66]     c11       9
    x[66]     c1        742
    x[66]     OBJ       -736
    x[67]     c2        889
    x[67]     c3        590
    x[67]     c4        528
    x[67]     c5        380
    x[67]     c6        229
    x[67]     c7        436
    x[67]     c8        775
    x[67]     c9        412
    x[67]     c10       549
    x[67]     c11       866
    x[67]     c1        275
    x[67]     OBJ       -1248
    x[68]     c2        967
    x[68]     c3        123
    x[68]     c4        821
    x[68]     c5        161
    x[68]     c6        316
    x[68]     c7        574
    x[68]     c8        974
    x[68]     c9        633
    x[68]     c10       305
    x[68]     c11       198
    x[68]     c1        601
    x[68]     OBJ       -656
    x[69]     c2        524
    x[69]     c3        555
    x[69]     c4        911
    x[69]     c5        319
    x[69]     c6        766
    x[69]     c7        665
    x[69]     c8        758
    x[69]     c9        729
    x[69]     c10       991
    x[69]     c11       327
    x[69]     c1        951
    x[69]     OBJ       -673
    x[70]     c2        184
    x[70]     c3        627
    x[70]     c4        954
    x[70]     c5        345
    x[70]     c6        432
    x[70]     c7        701
    x[70]     c8        327
    x[70]     c9        43
    x[70]     c10       472
    x[70]     c11       449
    x[70]     c1        731
    x[70]     OBJ       -478
    x[71]     c2        848
    x[71]     c3        595
    x[71]     c4        629
    x[71]     c5        848
    x[71]     c6        945
    x[71]     c7        852
    x[71]     c8        815
    x[71]     c9        256
    x[71]     c10       95
    x[71]     c11       155
    x[71]     c1        166
    x[71]     OBJ       -1495
    x[72]     c2        885
    x[72]     c3        288
    x[72]     c4        129
    x[72]     c5        545
    x[72]     c6        424
    x[72]     c7        723
    x[72]     c8        220
    x[72]     c9        451
    x[72]     c10       567
    x[72]     c11       876
    x[72]     c1        659
    x[72]     OBJ       -751
    x[73]     c2        184
    x[73]     c3        584
    x[73]     c4        916
    x[73]     c5        588
    x[73]     c6        739
    x[73]     c7        880
    x[73]     c8        274
    x[73]     c9        85
    x[73]     c10       334
    x[73]     c11       142
    x[73]     c1        15
    x[73]     OBJ       -1394
    x[74]     c2        249
    x[74]     c3        760
    x[74]     c4        968
    x[74]     c5        498
    x[74]     c6        831
    x[74]     c7        206
    x[74]     c8        577
    x[74]     c9        926
    x[74]     c10       61
    x[74]     c11       789
    x[74]     c1        230
    x[74]     OBJ       -1149
    x[75]     c2        346
    x[75]     c3        870
    x[75]     c4        149
    x[75]     c5        795
    x[75]     c6        233
    x[75]     c7        414
    x[75]     c8        890
    x[75]     c9        22
    x[75]     c10       820
    x[75]     c11       694
    x[75]     c1        577
    x[75]     OBJ       -562
    x[76]     c2        203
    x[76]     c3        15
    x[76]     c4        757
    x[76]     c5        944
    x[76]     c6        620
    x[76]     c7        370
    x[76]     c8        720
    x[76]     c9        873
    x[76]     c10       713
    x[76]     c11       390
    x[76]     c1        807
    x[76]     OBJ       -779
    x[77]     c2        137
    x[77]     c3        427
    x[77]     c4        727
    x[77]     c5        207
    x[77]     c6        966
    x[77]     c7        889
    x[77]     c8        988
    x[77]     c9        441
    x[77]     c10       807
    x[77]     c11       695
    x[77]     c1        420
    x[77]     OBJ       -1061
    x[78]     c2        811
    x[78]     c3        996
    x[78]     c4        280
    x[78]     c5        548
    x[78]     c6        647
    x[78]     c7        504
    x[78]     c8        812
    x[78]     c9        448
    x[78]     c10       794
    x[78]     c11       118
    x[78]     c1        862
    x[78]     OBJ       -702
    x[79]     c2        645
    x[79]     c3        59
    x[79]     c4        946
    x[79]     c5        399
    x[79]     c6        391
    x[79]     c7        290
    x[79]     c8        93
    x[79]     c9        954
    x[79]     c10       951
    x[79]     c11       73
    x[79]     c1        974
    x[79]     OBJ       -404
    x[80]     c2        126
    x[80]     c3        759
    x[80]     c4        357
    x[80]     c5        450
    x[80]     c6        499
    x[80]     c7        303
    x[80]     c8        765
    x[80]     c9        662
    x[80]     c10       816
    x[80]     c11       815
    x[80]     c1        991
    x[80]     OBJ       -611
    x[81]     c2        564
    x[81]     c3        544
    x[81]     c4        643
    x[81]     c5        303
    x[81]     c6        448
    x[81]     c7        261
    x[81]     c8        232
    x[81]     c9        495
    x[81]     c10       343
    x[81]     c11       45
    x[81]     c1        795
    x[81]     OBJ       -582
    x[82]     c2        118
    x[82]     c3        561
    x[82]     c4        724
    x[82]     c5        907
    x[82]     c6        457
    x[82]     c7        970
    x[82]     c8        346
    x[82]     c9        76
    x[82]     c10       116
    x[82]     c11       322
    x[82]     c1        938
    x[82]     OBJ       -168
    x[83]     c2        237
    x[83]     c3        6
    x[83]     c4        325
    x[83]     c5        580
    x[83]     c6        329
    x[83]     c7        406
    x[83]     c8        596
    x[83]     c9        888
    x[83]     c10       290
    x[83]     c11       528
    x[83]     c1        792
    x[83]     OBJ       -474
    x[84]     c2        719
    x[84]     c3        328
    x[84]     c4        284
    x[84]     c5        768
    x[84]     c6        288
    x[84]     c7        938
    x[84]     c8        332
    x[84]     c9        563
    x[84]     c10       631
    x[84]     c11       96
    x[84]     c1        647
    x[84]     OBJ       -757
    x[85]     c2        703
    x[85]     c3        472
    x[85]     c4        252
    x[85]     c5        276
    x[85]     c6        536
    x[85]     c7        677
    x[85]     c8        151
    x[85]     c9        827
    x[85]     c10       834
    x[85]     c11       853
    x[85]     c1        59
    x[85]     OBJ       -1379
    x[86]     c2        526
    x[86]     c3        551
    x[86]     c4        944
    x[86]     c5        690
    x[86]     c6        640
    x[86]     c7        579
    x[86]     c8        501
    x[86]     c9        182
    x[86]     c10       991
    x[86]     c11       177
    x[86]     c1        991
    x[86]     OBJ       -483
    x[87]     c2        231
    x[87]     c3        483
    x[87]     c4        388
    x[87]     c5        837
    x[87]     c6        936
    x[87]     c7        283
    x[87]     c8        319
    x[87]     c9        838
    x[87]     c10       849
    x[87]     c11       211
    x[87]     c1        759
    x[87]     OBJ       -745
    x[88]     c2        496
    x[88]     c3        555
    x[88]     c4        241
    x[88]     c5        124
    x[88]     c6        224
    x[88]     c7        227
    x[88]     c8        805
    x[88]     c9        110
    x[88]     c10       851
    x[88]     c11       199
    x[88]     c1        627
    x[88]     OBJ       -587
    x[89]     c2        645
    x[89]     c3        12
    x[89]     c4        160
    x[89]     c5        980
    x[89]     c6        734
    x[89]     c7        22
    x[89]     c8        321
    x[89]     c9        332
    x[89]     c10       832
    x[89]     c11       1
    x[89]     c1        328
    x[89]     OBJ       -975
    x[90]     c2        5
    x[90]     c3        350
    x[90]     c4        940
    x[90]     c5        766
    x[90]     c6        524
    x[90]     c7        635
    x[90]     c8        69
    x[90]     c9        511
    x[90]     c10       369
    x[90]     c11       71
    x[90]     c1        902
    x[90]     OBJ       -201
    x[91]     c2        146
    x[91]     c3        407
    x[91]     c4        680
    x[91]     c5        3
    x[91]     c6        813
    x[91]     c7        942
    x[91]     c8        260
    x[91]     c9        879
    x[91]     c10       696
    x[91]     c11       553
    x[91]     c1        629
    x[91]     OBJ       -741
    x[92]     c2        54
    x[92]     c3        797
    x[92]     c4        546
    x[92]     c5        504
    x[92]     c6        906
    x[92]     c7        998
    x[92]     c8        443
    x[92]     c9        595
    x[92]     c10       240
    x[92]     c11       375
    x[92]     c1        510
    x[92]     OBJ       -817
    x[93]     c2        553
    x[93]     c3        34
    x[93]     c4        602
    x[93]     c5        747
    x[93]     c6        430
    x[93]     c7        689
    x[93]     c8        980
    x[93]     c9        779
    x[93]     c10       513
    x[93]     c11       530
    x[93]     c1        103
    x[93]     OBJ       -1397
    x[94]     c2        655
    x[94]     c3        496
    x[94]     c4        692
    x[94]     c5        35
    x[94]     c6        448
    x[94]     c7        850
    x[94]     c8        284
    x[94]     c9        724
    x[94]     c10       877
    x[94]     c11       532
    x[94]     c1        788
    x[94]     OBJ       -641
    x[95]     c2        877
    x[95]     c3        753
    x[95]     c4        111
    x[95]     c5        716
    x[95]     c6        796
    x[95]     c7        596
    x[95]     c8        610
    x[95]     c9        877
    x[95]     c10       325
    x[95]     c11       97
    x[95]     c1        73
    x[95]     OBJ       -1274
    x[96]     c2        988
    x[96]     c3        954
    x[96]     c4        633
    x[96]     c5        289
    x[96]     c6        807
    x[96]     c7        414
    x[96]     c8        681
    x[96]     c9        869
    x[96]     c10       983
    x[96]     c11       747
    x[96]     c1        379
    x[96]     OBJ       -1265
    x[97]     c2        59
    x[97]     c3        482
    x[97]     c4        822
    x[97]     c5        69
    x[97]     c6        485
    x[97]     c7        826
    x[97]     c8        503
    x[97]     c9        549
    x[97]     c10       990
    x[97]     c11       392
    x[97]     c1        573
    x[97]     OBJ       -778
    x[98]     c2        732
    x[98]     c3        626
    x[98]     c4        824
    x[98]     c5        538
    x[98]     c6        611
    x[98]     c7        108
    x[98]     c8        818
    x[98]     c9        733
    x[98]     c10       569
    x[98]     c11       653
    x[98]     c1        783
    x[98]     OBJ       -789
    x[99]     c2        144
    x[99]     c3        645
    x[99]     c4        87
    x[99]     c5        873
    x[99]     c6        150
    x[99]     c7        146
    x[99]     c8        610
    x[99]     c9        180
    x[99]     c10       773
    x[99]     c11       901
    x[99]     c1        310
    x[99]     OBJ       -998
    x[100]    c2        573
    x[100]    c3        372
    x[100]    c4        425
    x[100]    c5        871
    x[100]    c6        168
    x[100]    c7        364
    x[100]    c8        903
    x[100]    c9        867
    x[100]    c10       489
    x[100]    c11       567
    x[100]    c1        38
    x[100]    OBJ       -1417
RHS
    rhs       c2        39924
    rhs       c3        39321
    rhs       c4        35729
    rhs       c5        38899
    rhs       c6        37385
    rhs       c7        36437
    rhs       c8        39217
    rhs       c9        42092
    rhs       c10       36935
    rhs       c11       34611
    rhs       c1        38517
RANGES
BOUNDS
 LO bounds    ss[1]     0
 PL bounds    ss[1]
 MI bounds    s[1]
 UP bounds    s[1]      0
 MI bounds    s[2]
 UP bounds    s[2]      0
 MI bounds    s[3]
 UP bounds    s[3]      0
 MI bounds    s[4]
 UP bounds    s[4]      0
 MI bounds    s[5]
 UP bounds    s[5]      0
 MI bounds    s[6]
 UP bounds    s[6]      0
 MI bounds    s[7]
 UP bounds    s[7]      0
 MI bounds    s[8]
 UP bounds    s[8]      0
 MI bounds    s[9]
 UP bounds    s[9]      0
 MI bounds    s[10]
 UP bounds    s[10]     0
 BV bounds    x[1]
 BV bounds    x[2]
 BV bounds    x[3]
 BV bounds    x[4]
 BV bounds    x[5]
 BV bounds    x[6]
 BV bounds    x[7]
 BV bounds    x[8]
 BV bounds    x[9]
 BV bounds    x[10]
 BV bounds    x[11]
 BV bounds    x[12]
 BV bounds    x[13]
 BV bounds    x[14]
 BV bounds    x[15]
 BV bounds    x[16]
 BV bounds    x[17]
 BV bounds    x[18]
 BV bounds    x[19]
 BV bounds    x[20]
 BV bounds    x[21]
 BV bounds    x[22]
 BV bounds    x[23]
 BV bounds    x[24]
 BV bounds    x[25]
 BV bounds    x[26]
 BV bounds    x[27]
 BV bounds    x[28]
 BV bounds    x[29]
 BV bounds    x[30]
 BV bounds    x[31]
 BV bounds    x[32]
 BV bounds    x[33]
 BV bounds    x[34]
 BV bounds    x[35]
 BV bounds    x[36]
 BV bounds    x[37]
 BV bounds    x[38]
 BV bounds    x[39]
 BV bounds    x[40]
 BV bounds    x[41]
 BV bounds    x[42]
 BV bounds    x[43]
 BV bounds    x[44]
 BV bounds    x[45]
 BV bounds    x[46]
 BV bounds    x[47]
 BV bounds    x[48]
 BV bounds    x[49]
 BV bounds    x[50]
 BV bounds    x[51]
 BV bounds    x[52]
 BV bounds    x[53]
 BV bounds    x[54]
 BV bounds    x[55]
 BV bounds    x[56]
 BV bounds    x[57]
 BV bounds    x[58]
 BV bounds    x[59]
 BV bounds    x[60]
 BV bounds    x[61]
 BV bounds    x[62]
 BV bounds    x[63]
 BV bounds    x[64]
 BV bounds    x[65]
 BV bounds    x[66]
 BV bounds    x[67]
 BV bounds    x[68]
 BV bounds    x[69]
 BV bounds    x[70]
 BV bounds    x[71]
 BV bounds    x[72]
 BV bounds    x[73]
 BV bounds    x[74]
 BV bounds    x[75]
 BV bounds    x[76]
 BV bounds    x[77]
 BV bounds    x[78]
 BV bounds    x[79]
 BV bounds    x[80]
 BV bounds    x[81]
 BV bounds    x[82]
 BV bounds    x[83]
 BV bounds    x[84]
 BV bounds    x[85]
 BV bounds    x[86]
 BV bounds    x[87]
 BV bounds    x[88]
 BV bounds    x[89]
 BV bounds    x[90]
 BV bounds    x[91]
 BV bounds    x[92]
 BV bounds    x[93]
 BV bounds    x[94]
 BV bounds    x[95]
 BV bounds    x[96]
 BV bounds    x[97]
 BV bounds    x[98]
 BV bounds    x[99]
 BV bounds    x[100]
ENDATA
